WARNING: for repeatability, setting FPU to use double precision
============================[ Problem Statistics ]=============================
|                                                                             |
|  Number of variables:            50                                         |
|  Number of clauses:             218                                         |
|  Parse time:                   0.00 s                                       |
|                                                                             |
============================[ Search Statistics ]==============================
| Conflicts |          ORIGINAL         |          LEARNT          | Progress |
|           |    Vars  Clauses Literals |    Limit  Clauses Lit/Cl |          |
===============================================================================
===============================================================================
restarts              : 1
conflicts             : 17             (12328 /sec)
decisions             : 32             (0.00 % random) (23205 /sec)
propagations          : 275            (199420 /sec)
conflict literals     : 69             (21.59 % deleted)
Memory used           : 20.00 MB
CPU time              : 0.001379 s

SATISFIABLE
